(set-logic ALL)
(set-option :produce-models true)
(declare-sort BoundSet 0)
(declare-sort UnboundSet 0)
(set-option :finite-model-find true)
(declare-fun WereCooler (BoundSet BoundSet) Bool)
(declare-fun Thought (BoundSet BoundSet) Bool)
(declare-fun IsGlobalWarming (BoundSet) Bool)
(declare-fun Undergoing (BoundSet BoundSet) Bool)
(declare-fun IsUnparalleled (BoundSet BoundSet) Bool)
(declare-fun IsWorse (BoundSet) Bool)
(assert (not (=> (exists ((a BoundSet)) (exists ((c BoundSet)) (exists ((b BoundSet)) (and (WereCooler b c) (Thought b a))))) (exists ((e BoundSet)) (exists ((a BoundSet)) (exists ((d BoundSet)) (and (IsGlobalWarming d) (and (Undergoing a d) (and (IsUnparalleled d e) (IsWorse d))))))))))
(check-sat)
(get-model)